c width = 1, time = 0.000371
s td 101 2 101
b 1 1
b 2 1 2
b 3 1 3
b 4 1 4
b 5 1 5
b 6 1 6
b 7 1 7
b 8 1 8
b 9 1 9
b 10 1 10
b 11 1 11
b 12 1 12
b 13 1 13
b 14 1 14
b 15 1 15
b 16 1 16
b 17 1 17
b 18 1 18
b 19 1 19
b 20 1 20
b 21 1 21
b 22 1 22
b 23 1 23
b 24 1 24
b 25 1 25
b 26 1 26
b 27 1 27
b 28 1 28
b 29 1 29
b 30 1 30
b 31 1 31
b 32 1 32
b 33 1 33
b 34 1 34
b 35 1 35
b 36 1 36
b 37 1 37
b 38 1 38
b 39 1 39
b 40 1 40
b 41 1 41
b 42 1 42
b 43 1 43
b 44 1 44
b 45 1 45
b 46 1 46
b 47 1 47
b 48 1 48
b 49 1 49
b 50 1 50
b 51 1 51
b 52 1 52
b 53 1 53
b 54 1 54
b 55 1 55
b 56 1 56
b 57 1 57
b 58 1 58
b 59 1 59
b 60 1 60
b 61 1 61
b 62 1 62
b 63 1 63
b 64 1 64
b 65 1 65
b 66 1 66
b 67 1 67
b 68 1 68
b 69 1 69
b 70 1 70
b 71 1 71
b 72 1 72
b 73 1 73
b 74 1 74
b 75 1 75
b 76 1 76
b 77 1 77
b 78 1 78
b 79 1 79
b 80 1 80
b 81 1 81
b 82 1 82
b 83 1 83
b 84 1 84
b 85 1 85
b 86 1 86
b 87 1 87
b 88 1 88
b 89 1 89
b 90 1 90
b 91 1 91
b 92 1 92
b 93 1 93
b 94 1 94
b 95 1 95
b 96 1 96
b 97 1 97
b 98 1 98
b 99 1 99
b 100 1 100
b 101 1 101
1 2
1 3
1 4
1 5
1 6
1 7
1 8
1 9
1 10
1 11
1 12
1 13
1 14
1 15
1 16
1 17
1 18
1 19
1 20
1 21
1 22
1 23
1 24
1 25
1 26
1 27
1 28
1 29
1 30
1 31
1 32
1 33
1 34
1 35
1 36
1 37
1 38
1 39
1 40
1 41
1 42
1 43
1 44
1 45
1 46
1 47
1 48
1 49
1 50
1 51
1 52
1 53
1 54
1 55
1 56
1 57
1 58
1 59
1 60
1 61
1 62
1 63
1 64
1 65
1 66
1 67
1 68
1 69
1 70
1 71
1 72
1 73
1 74
1 75
1 76
1 77
1 78
1 79
1 80
1 81
1 82
1 83
1 84
1 85
1 86
1 87
1 88
1 89
1 90
1 91
1 92
1 93
1 94
1 95
1 96
1 97
1 98
1 99
1 100
1 101
